p tw 79 285
0 1
0 2
0 33
0 74
0 52
0 57
1 2
1 6
1 64
1 32
1 34
1 70
1 75
1 37
1 58
1 10
1 78
1 44
2 5
2 11
2 21
2 22
2 28
2 32
2 4
2 14
3 4
3 5
3 9
3 10
3 17
3 40
4 5
4 35
4 36
4 18
4 39
4 13
4 22
4 60
4 63
4 14
4 59
4 76
5 11
5 48
5 59
5 65
5 69
6 7
6 8
6 25
6 53
6 55
6 64
6 33
6 15
6 72
6 9
6 47
7 8
7 25
7 51
7 75
8 18
8 45
9 10
9 39
9 43
9 14
9 49
9 47
9 48
10 35
10 38
10 49
10 50
10 58
11 37
11 38
11 51
11 18
11 74
12 13
12 14
12 15
12 27
12 66
12 73
13 14
13 22
13 26
13 32
13 27
13 28
14 28
14 58
14 49
14 48
15 16
15 17
15 18
15 27
15 50
15 62
15 72
15 67
15 77
16 17
16 21
16 26
16 40
16 41
16 31
16 53
17 34
17 60
17 30
17 54
17 40
17 51
17 72
18 19
18 20
18 27
18 39
18 45
18 29
18 71
18 74
19 20
19 22
19 44
19 48
19 26
19 58
19 36
19 49
20 44
20 45
21 22
21 26
21 23
21 30
22 23
22 24
22 28
22 29
22 44
22 56
22 48
23 24
23 30
23 28
23 50
23 25
23 58
25 33
25 58
26 32
26 47
26 65
26 58
27 67
27 70
27 42
27 68
27 28
28 29
28 49
28 52
28 58
28 32
28 50
28 30
29 42
29 43
29 71
29 30
30 31
30 32
30 54
30 53
30 65
30 66
30 48
30 75
31 32
31 33
31 34
31 53
31 66
32 34
32 67
32 39
32 40
32 73
32 74
33 34
33 68
33 69
33 74
33 44
33 71
33 48
33 65
34 60
34 67
34 49
34 65
35 36
35 38
36 49
37 38
37 51
37 57
37 63
37 58
38 47
38 48
39 43
39 61
39 62
39 40
40 41
40 55
40 65
41 46
41 47
41 51
41 67
41 74
42 43
42 45
42 51
42 68
43 57
43 64
44 45
44 56
44 71
44 64
45 51
46 47
46 56
46 64
46 51
47 48
47 53
47 54
47 65
48 59
48 75
48 65
49 50
49 52
49 65
50 62
51 72
51 75
52 57
53 54
53 55
53 57
53 58
53 65
55 65
56 64
57 58
57 63
57 64
59 76
60 63
60 73
60 74
61 62
64 78
65 69
66 73
67 70
67 74
67 77
68 69
70 75
73 74
